Minimize
	value: tt

Subject to
tt + 500 s_1_1 > 0
tt - t_1_1 - 500.000000 s_1_1 > -275.819960
tt + 500 s_2_1 > 0
tt - t_2_1 - 500.000000 s_2_1 > -425.257400
tt + 500 s_1_2 > 0
tt - t_1_2 - 500.000000 s_1_2 > -477.355140
tt + 500 s_2_2 > 0
tt - t_2_2 - 500.000000 s_2_2 > -488.104700
tt + 500 s_1_3 > 0
tt - t_1_3 - 500.000000 s_1_3 > -451.428400
tt + 500 s_2_3 > 0
tt - t_2_3 - 500.000000 s_2_3 > -484.252800
tt + 500 s_1_4 > 0
tt - t_1_4 - 500.000000 s_1_4 > -366.462400
tt + 500 s_2_4 > 0
tt - t_2_4 - 500.000000 s_2_4 > -456.244300
tt + 500 s_1_5 > 0
tt - t_1_5 - 548.000000 s_1_5 + 48.000000 s_1_2 > -498.803140
tt + 500 s_2_5 > 0
tt - t_2_5 - 548.000000 s_2_5 + 48.000000 s_2_2 > -498.193500
s_1_1 + s_2_1  = 1
s_1_2 + s_2_2  = 1
s_1_3 + s_2_3  = 1
s_1_4 + s_2_4  = 1
s_1_5 + s_2_5  = 1
t_1_1 - t_1_2 + 500.000000 u_1_1_2 > 22.644860
t_1_2 - t_1_1 - 500.000000 u_1_1_2 > -275.819960
t_2_1 - t_2_2 + 500.000000 u_2_1_2 > 11.895300
t_2_2 - t_2_1 - 500.000000 u_2_1_2 > -425.257400
t_1_1 - t_1_3 + 500.000000 u_1_1_3 > 48.571600
t_1_3 - t_1_1 - 500.000000 u_1_1_3 > -275.819960
t_2_1 - t_2_3 + 500.000000 u_2_1_3 > 15.747200
t_2_3 - t_2_1 - 500.000000 u_2_1_3 > -425.257400
t_1_1 - t_1_4 + 500.000000 u_1_1_4 > 133.537600
t_1_4 - t_1_1 - 500.000000 u_1_1_4 > -275.819960
t_2_1 - t_2_4 + 500.000000 u_2_1_4 > 43.755700
t_2_4 - t_2_1 - 500.000000 u_2_1_4 > -425.257400
t_1_5 - t_1_1 - 500.000000 s_1_1 > -272.179090
t_1_5 - t_2_1 - 500.000000 s_2_1 > -419.602410
t_2_5 - t_1_1 - 500.000000 s_1_1 > -272.179090
t_2_5 - t_2_1 - 500.000000 s_2_1 > -419.602410
t_1_2 - t_1_1 + 500.000000 u_1_2_1 > 224.180040
t_1_1 - t_1_2 - 500.000000 u_1_2_1 > -477.355140
t_2_2 - t_2_1 + 500.000000 u_2_2_1 > 74.742600
t_2_1 - t_2_2 - 500.000000 u_2_2_1 > -488.104700
t_1_2 - t_1_3 + 500.000000 u_1_2_3 > 48.571600
t_1_3 - t_1_2 - 500.000000 u_1_2_3 > -477.355140
t_2_2 - t_2_3 + 500.000000 u_2_2_3 > 15.747200
t_2_3 - t_2_2 - 500.000000 u_2_2_3 > -488.104700
t_1_2 - t_1_4 + 500.000000 u_1_2_4 > 133.537600
t_1_4 - t_1_2 - 500.000000 u_1_2_4 > -477.355140
t_2_2 - t_2_4 + 500.000000 u_2_2_4 > 43.755700
t_2_4 - t_2_2 - 500.000000 u_2_2_4 > -488.104700
t_1_5 - t_1_2 - 500.000000 s_1_2 > -473.714270
t_1_5 - t_2_2 - 500.000000 s_2_2 > -482.449710
t_2_5 - t_1_2 - 500.000000 s_1_2 > -473.714270
t_2_5 - t_2_2 - 500.000000 s_2_2 > -482.449710
t_1_3 - t_1_1 + 500.000000 u_1_3_1 > 224.180040
t_1_1 - t_1_3 - 500.000000 u_1_3_1 > -451.428400
t_2_3 - t_2_1 + 500.000000 u_2_3_1 > 74.742600
t_2_1 - t_2_3 - 500.000000 u_2_3_1 > -484.252800
t_1_3 - t_1_2 + 500.000000 u_1_3_2 > 22.644860
t_1_2 - t_1_3 - 500.000000 u_1_3_2 > -451.428400
t_2_3 - t_2_2 + 500.000000 u_2_3_2 > 11.895300
t_2_2 - t_2_3 - 500.000000 u_2_3_2 > -484.252800
t_1_3 - t_1_4 + 500.000000 u_1_3_4 > 133.537600
t_1_4 - t_1_3 - 500.000000 u_1_3_4 > -451.428400
t_2_3 - t_2_4 + 500.000000 u_2_3_4 > 43.755700
t_2_4 - t_2_3 - 500.000000 u_2_3_4 > -484.252800
t_1_5 - t_1_3 - 500.000000 s_1_3 > -447.787530
t_1_5 - t_2_3 - 500.000000 s_2_3 > -478.597810
t_2_5 - t_1_3 - 500.000000 s_1_3 > -447.787530
t_2_5 - t_2_3 - 500.000000 s_2_3 > -478.597810
t_1_4 - t_1_1 + 500.000000 u_1_4_1 > 224.180040
t_1_1 - t_1_4 - 500.000000 u_1_4_1 > -366.462400
t_2_4 - t_2_1 + 500.000000 u_2_4_1 > 74.742600
t_2_1 - t_2_4 - 500.000000 u_2_4_1 > -456.244300
t_1_4 - t_1_2 + 500.000000 u_1_4_2 > 22.644860
t_1_2 - t_1_4 - 500.000000 u_1_4_2 > -366.462400
t_2_4 - t_2_2 + 500.000000 u_2_4_2 > 11.895300
t_2_2 - t_2_4 - 500.000000 u_2_4_2 > -456.244300
t_1_4 - t_1_3 + 500.000000 u_1_4_3 > 48.571600
t_1_3 - t_1_4 - 500.000000 u_1_4_3 > -366.462400
t_2_4 - t_2_3 + 500.000000 u_2_4_3 > 15.747200
t_2_3 - t_2_4 - 500.000000 u_2_4_3 > -456.244300
t_1_5 - t_1_4 - 500.000000 s_1_4 > -362.821530
t_1_5 - t_2_4 - 500.000000 s_2_4 > -450.589310
t_2_5 - t_1_4 - 500.000000 s_1_4 > -362.821530
t_2_5 - t_2_4 - 500.000000 s_2_4 > -450.589310
t_1_5 - t_1_1 - 500.000000 s_1_1 > -272.179090
t_1_5 - t_2_1 - 500.000000 s_2_1 > -419.602410
t_2_5 - t_1_1 - 500.000000 s_1_1 > -272.179090
t_2_5 - t_2_1 - 500.000000 s_2_1 > -419.602410
t_1_5 - t_1_2 - 500.000000 s_1_2 > -473.714270
t_1_5 - t_2_2 - 500.000000 s_2_2 > -482.449710
t_2_5 - t_1_2 - 500.000000 s_1_2 > -473.714270
t_2_5 - t_2_2 - 500.000000 s_2_2 > -482.449710
t_1_5 - t_1_3 - 500.000000 s_1_3 > -447.787530
t_1_5 - t_2_3 - 500.000000 s_2_3 > -478.597810
t_2_5 - t_1_3 - 500.000000 s_1_3 > -447.787530
t_2_5 - t_2_3 - 500.000000 s_2_3 > -478.597810
t_1_5 - t_1_4 - 500.000000 s_1_4 > -362.821530
t_1_5 - t_2_4 - 500.000000 s_2_4 > -450.589310
t_2_5 - t_1_4 - 500.000000 s_1_4 > -362.821530
t_2_5 - t_2_4 - 500.000000 s_2_4 > -450.589310
Binary
s_1_1
s_2_1
s_1_2
s_2_2
s_1_3
s_2_3
s_1_4
s_2_4
s_1_5
s_2_5
u_1_1_2
u_2_1_2
u_1_1_3
u_2_1_3
u_1_1_4
u_2_1_4
u_1_2_1
u_2_2_1
u_1_2_3
u_2_2_3
u_1_2_4
u_2_2_4
u_1_3_1
u_2_3_1
u_1_3_2
u_2_3_2
u_1_3_4
u_2_3_4
u_1_4_1
u_2_4_1
u_1_4_2
u_2_4_2
u_1_4_3
u_2_4_3

End
